NAME : tsp_351_sol.txt
COMMENT : OR-Tools Guided Local Search
TYPE : TOUR
DIMENSION : 50
COST : 6151
STATUS : ROUTING_SUCCESS
GAP : 0.00% (Reference Solution)
TOUR_SECTION
1
48
20
7
26
46
22
21
38
3
34
47
36
50
33
5
41
15
14
18
30
31
27
6
49
2
40
39
37
45
42
17
25
19
23
9
44
12
11
35
8
10
24
28
13
43
32
29
4
16
-1
